(set-info :smt-lib-version 2.6)
(set-logic UF)
(set-info :source |Benchmarks from the paper: "Extending Sledgehammer with SMT Solvers" by Jasmin Blanchette, Sascha Bohme, and Lawrence C. Paulson, CADE 2011.  Translated to SMT2 by Andrew Reynolds and Morgan Deters.|)
(set-info :category "industrial")
(set-info :status sat)
(declare-sort S1 0)
(declare-sort S2 0)
(declare-sort S3 0)
(declare-sort S4 0)
(declare-sort S5 0)
(declare-sort S6 0)
(declare-sort S7 0)
(declare-sort S8 0)
(declare-sort S9 0)
(declare-sort S10 0)
(declare-sort S11 0)
(declare-sort S12 0)
(declare-sort S13 0)
(declare-sort S14 0)
(declare-sort S15 0)
(declare-sort S16 0)
(declare-sort S17 0)
(declare-sort S18 0)
(declare-sort S19 0)
(declare-sort S20 0)
(declare-sort S21 0)
(declare-sort S22 0)
(declare-sort S23 0)
(declare-sort S24 0)
(declare-sort S25 0)
(declare-sort S26 0)
(declare-fun f1 () S1)
(declare-fun f2 () S1)
(declare-fun f3 (S3 S2) S4)
(declare-fun f4 () S3)
(declare-fun f5 (S5 S6) S4)
(declare-fun f6 (S7 S8) S5)
(declare-fun f7 (S9 S6) S7)
(declare-fun f8 () S9)
(declare-fun f9 (S2) S6)
(declare-fun f10 (S10 S2) S8)
(declare-fun f11 () S10)
(declare-fun f12 (S2) S6)
(declare-fun f13 (S11 S4) S1)
(declare-fun f14 (S4) S11)
(declare-fun f15 (S12 S2) S1)
(declare-fun f16 (S2) S12)
(declare-fun f17 (S4) S11)
(declare-fun f18 (S2) S12)
(declare-fun f19 (S13 S11) S11)
(declare-fun f20 (S4) S13)
(declare-fun f21 (S14 S12) S12)
(declare-fun f22 (S2) S14)
(declare-fun f23 (S15 S4) S4)
(declare-fun f24 (S16 S4) S15)
(declare-fun f25 () S16)
(declare-fun f26 (S17 S4) S3)
(declare-fun f27 () S17)
(declare-fun f28 (S18 S4) S2)
(declare-fun f29 (S19 S2) S18)
(declare-fun f30 () S19)
(declare-fun f31 (S20 S2) S2)
(declare-fun f32 (S21 S2) S20)
(declare-fun f33 () S21)
(declare-fun f34 () S11)
(declare-fun f35 () S12)
(declare-fun f36 (S11 S11) S1)
(declare-fun f37 () S11)
(declare-fun f38 (S4) S13)
(declare-fun f39 () S2)
(declare-fun f40 () S11)
(declare-fun f41 (S2 S12) S1)
(declare-fun f42 () S12)
(declare-fun f43 (S22 S12) S11)
(declare-fun f44 (S3) S22)
(declare-fun f45 (S25 S24) S1)
(declare-fun f46 (S6 S23) S25)
(declare-fun f47 () S12)
(declare-fun f48 (S26 S11) S12)
(declare-fun f49 (S18) S26)
(declare-fun f50 (S2) S14)
(declare-fun f51 (S20) S14)
(declare-fun f52 (S15) S13)
(declare-fun f53 (S4 S11) S1)
(declare-fun f54 (S11) S11)
(declare-fun f55 (S12) S12)
(assert (not (= f1 f2)))
(assert (forall ((?v0 S2)) (= (f3 f4 ?v0) (f5 (f6 (f7 f8 (f9 ?v0)) (f10 f11 ?v0)) (f12 ?v0)))))
(assert (forall ((?v0 S4) (?v1 S4)) (= (= (f13 (f14 ?v0) ?v1) f1) (= ?v0 ?v1))))
(assert (forall ((?v0 S2) (?v1 S2)) (= (= (f15 (f16 ?v0) ?v1) f1) (= ?v0 ?v1))))
(assert (forall ((?v0 S4) (?v1 S4)) (= (= (f13 (f17 ?v0) ?v1) f1) (= ?v1 ?v0))))
(assert (forall ((?v0 S2) (?v1 S2)) (= (= (f15 (f18 ?v0) ?v1) f1) (= ?v1 ?v0))))
(assert (forall ((?v0 S4) (?v1 S11) (?v2 S4)) (= (= (f13 (f19 (f20 ?v0) ?v1) ?v2) f1) (and (= ?v0 ?v2) (= (f13 ?v1 ?v2) f1)))))
(assert (forall ((?v0 S2) (?v1 S12) (?v2 S2)) (= (= (f15 (f21 (f22 ?v0) ?v1) ?v2) f1) (and (= ?v0 ?v2) (= (f15 ?v1 ?v2) f1)))))
(assert (forall ((?v0 S4) (?v1 S4)) (= (f23 (f24 f25 ?v0) ?v1) ?v0)))
(assert (forall ((?v0 S4) (?v1 S2)) (= (f3 (f26 f27 ?v0) ?v1) ?v0)))
(assert (forall ((?v0 S2) (?v1 S4)) (= (f28 (f29 f30 ?v0) ?v1) ?v0)))
(assert (forall ((?v0 S2) (?v1 S2)) (= (f31 (f32 f33 ?v0) ?v1) ?v0)))
(assert (forall ((?v0 S4)) (= (= (f13 f34 ?v0) f1) false)))
(assert (forall ((?v0 S2)) (= (= (f15 f35 ?v0) f1) false)))
(assert (not (= (f36 f37 (f19 (f38 (f5 (f6 (f7 f8 (f9 f39)) (f10 f11 f39)) (f12 f39))) f40)) f1)))
(assert (= (f41 f39 f42) f1))
(assert (= (f36 f37 (f43 (f44 f4) f42)) f1))
(assert (forall ((?v0 S11)) (= (f36 ?v0 f40) f1)))
(assert (forall ((?v0 S6) (?v1 S8) (?v2 S6) (?v3 S6) (?v4 S8) (?v5 S6)) (= (= (f5 (f6 (f7 f8 ?v0) ?v1) ?v2) (f5 (f6 (f7 f8 ?v3) ?v4) ?v5)) (and (= ?v0 ?v3) (and (= ?v1 ?v4) (= ?v2 ?v5))))))
(assert (forall ((?v0 S11) (?v1 S11) (?v2 S11)) (=> (= (f36 ?v0 ?v1) f1) (=> (= (f36 ?v2 ?v0) f1) (= (f36 ?v2 ?v1) f1)))))
(assert (forall ((?v0 S11) (?v1 S4) (?v2 S11)) (let ((?v_0 (f38 ?v1))) (=> (= (f36 ?v0 (f19 ?v_0 f40)) f1) (=> (= (f36 ?v0 ?v2) f1) (= (f36 ?v0 (f19 ?v_0 ?v2)) f1))))))
(assert (forall ((?v0 S11) (?v1 S6) (?v2 S8) (?v3 S6) (?v4 S6)) (let ((?v_0 (f6 (f7 f8 ?v1) ?v2))) (=> (= (f36 ?v0 (f19 (f38 (f5 ?v_0 ?v3)) f40)) f1) (=> (forall ((?v5 S23) (?v6 S24)) (=> (= (f45 (f46 ?v3 ?v5) ?v6) f1) (= (f45 (f46 ?v4 ?v5) ?v6) f1))) (= (f36 ?v0 (f19 (f38 (f5 ?v_0 ?v4)) f40)) f1))))))
(assert (forall ((?v0 S11) (?v1 S6) (?v2 S8) (?v3 S6) (?v4 S6)) (=> (= (f36 ?v0 (f19 (f38 (f5 (f6 (f7 f8 ?v1) ?v2) ?v3)) f40)) f1) (=> (forall ((?v5 S23) (?v6 S24)) (=> (= (f45 (f46 ?v4 ?v5) ?v6) f1) (= (f45 (f46 ?v1 ?v5) ?v6) f1))) (= (f36 ?v0 (f19 (f38 (f5 (f6 (f7 f8 ?v4) ?v2) ?v3)) f40)) f1)))))
(assert (forall ((?v0 S4) (?v1 S12)) (= (f43 (f44 (f26 f27 ?v0)) ?v1) (ite (= ?v1 f47) f40 (f19 (f38 ?v0) f40)))))
(assert (forall ((?v0 S2) (?v1 S11)) (= (f48 (f49 (f29 f30 ?v0)) ?v1) (ite (= ?v1 f40) f47 (f21 (f50 ?v0) f47)))))
(assert (forall ((?v0 S2) (?v1 S12)) (= (f21 (f51 (f32 f33 ?v0)) ?v1) (ite (= ?v1 f47) f47 (f21 (f50 ?v0) f47)))))
(assert (forall ((?v0 S4) (?v1 S11)) (= (f19 (f52 (f24 f25 ?v0)) ?v1) (ite (= ?v1 f40) f40 (f19 (f38 ?v0) f40)))))
(assert (forall ((?v0 S2) (?v1 S12) (?v2 S4)) (=> (= (f41 ?v0 ?v1) f1) (= (f43 (f44 (f26 f27 ?v2)) ?v1) (f19 (f38 ?v2) f40)))))
(assert (forall ((?v0 S4) (?v1 S11) (?v2 S4)) (=> (= (f53 ?v0 ?v1) f1) (= (f19 (f52 (f24 f25 ?v2)) ?v1) (f19 (f38 ?v2) f40)))))
(assert (forall ((?v0 S2) (?v1 S12) (?v2 S2)) (=> (= (f41 ?v0 ?v1) f1) (= (f21 (f51 (f32 f33 ?v2)) ?v1) (f21 (f50 ?v2) f47)))))
(assert (forall ((?v0 S4) (?v1 S11) (?v2 S2)) (=> (= (f53 ?v0 ?v1) f1) (= (f48 (f49 (f29 f30 ?v2)) ?v1) (f21 (f50 ?v2) f47)))))
(assert (forall ((?v0 S11) (?v1 S6) (?v2 S8) (?v3 S6) (?v4 S6) (?v5 S6)) (=> (= (f36 ?v0 (f19 (f38 (f5 (f6 (f7 f8 ?v1) ?v2) ?v3)) f40)) f1) (=> (forall ((?v6 S23) (?v7 S24)) (=> (= (f45 (f46 ?v4 ?v6) ?v7) f1) (forall ((?v8 S24)) (=> (forall ((?v9 S23)) (=> (= (f45 (f46 ?v1 ?v9) ?v7) f1) (= (f45 (f46 ?v3 ?v9) ?v8) f1))) (= (f45 (f46 ?v5 ?v6) ?v8) f1))))) (= (f36 ?v0 (f19 (f38 (f5 (f6 (f7 f8 ?v4) ?v2) ?v5)) f40)) f1)))))
(assert (forall ((?v0 S4) (?v1 S3) (?v2 S2) (?v3 S12)) (=> (= ?v0 (f3 ?v1 ?v2)) (=> (= (f41 ?v2 ?v3) f1) (= (f53 ?v0 (f43 (f44 ?v1) ?v3)) f1)))))
(assert (forall ((?v0 S2) (?v1 S18) (?v2 S4) (?v3 S11)) (=> (= ?v0 (f28 ?v1 ?v2)) (=> (= (f53 ?v2 ?v3) f1) (= (f41 ?v0 (f48 (f49 ?v1) ?v3)) f1)))))
(assert (forall ((?v0 S2) (?v1 S20) (?v2 S2) (?v3 S12)) (=> (= ?v0 (f31 ?v1 ?v2)) (=> (= (f41 ?v2 ?v3) f1) (= (f41 ?v0 (f21 (f51 ?v1) ?v3)) f1)))))
(assert (forall ((?v0 S4) (?v1 S15) (?v2 S4) (?v3 S11)) (=> (= ?v0 (f23 ?v1 ?v2)) (=> (= (f53 ?v2 ?v3) f1) (= (f53 ?v0 (f19 (f52 ?v1) ?v3)) f1)))))
(assert (forall ((?v0 S4) (?v1 S4) (?v2 S11)) (=> (= (f53 ?v0 (f19 (f38 ?v1) ?v2)) f1) (=> (=> (= ?v0 ?v1) false) (=> (=> (= (f53 ?v0 ?v2) f1) false) false)))))
(assert (forall ((?v0 S2) (?v1 S2) (?v2 S12)) (=> (= (f41 ?v0 (f21 (f50 ?v1) ?v2)) f1) (=> (=> (= ?v0 ?v1) false) (=> (=> (= (f41 ?v0 ?v2) f1) false) false)))))
(assert (forall ((?v0 S4) (?v1 S11) (?v2 S4)) (=> (=> (not (= (f53 ?v0 ?v1) f1)) (= ?v0 ?v2)) (= (f53 ?v0 (f19 (f38 ?v2) ?v1)) f1))))
(assert (forall ((?v0 S2) (?v1 S12) (?v2 S2)) (=> (=> (not (= (f41 ?v0 ?v1) f1)) (= ?v0 ?v2)) (= (f41 ?v0 (f21 (f50 ?v2) ?v1)) f1))))
(assert (forall ((?v0 S2)) (=> (= (f41 ?v0 f47) f1) false)))
(assert (forall ((?v0 S4)) (=> (= (f53 ?v0 f40) f1) false)))
(assert (forall ((?v0 S4)) (= (f54 (f14 ?v0)) (f19 (f38 ?v0) f40))))
(assert (forall ((?v0 S2)) (= (f55 (f16 ?v0)) (f21 (f50 ?v0) f47))))
(assert (forall ((?v0 S4)) (= (f54 (f17 ?v0)) (f19 (f38 ?v0) f40))))
(assert (forall ((?v0 S2)) (= (f55 (f18 ?v0)) (f21 (f50 ?v0) f47))))
(assert (forall ((?v0 S4) (?v1 S11)) (= (f54 (f19 (f20 ?v0) ?v1)) (ite (= (f13 ?v1 ?v0) f1) (f19 (f38 ?v0) f40) f40))))
(assert (forall ((?v0 S2) (?v1 S12)) (= (f55 (f21 (f22 ?v0) ?v1)) (ite (= (f15 ?v1 ?v0) f1) (f21 (f50 ?v0) f47) f47))))
(assert (forall ((?v0 S12) (?v1 S2)) (=> (= ?v0 f47) (not (= (f41 ?v1 ?v0) f1)))))
(assert (forall ((?v0 S11) (?v1 S4)) (=> (= ?v0 f40) (not (= (f53 ?v1 ?v0) f1)))))
(assert (forall ((?v0 S11)) (= (= (f54 ?v0) f40) (forall ((?v1 S4)) (not (= (f13 ?v0 ?v1) f1))))))
(assert (forall ((?v0 S12)) (= (= (f55 ?v0) f47) (forall ((?v1 S2)) (not (= (f15 ?v0 ?v1) f1))))))
(assert (forall ((?v0 S2)) (= (= (f41 ?v0 f47) f1) false)))
(assert (forall ((?v0 S4)) (= (= (f53 ?v0 f40) f1) false)))
(assert (forall ((?v0 S11)) (= (= f40 (f54 ?v0)) (forall ((?v1 S4)) (not (= (f13 ?v0 ?v1) f1))))))
(assert (forall ((?v0 S12)) (= (= f47 (f55 ?v0)) (forall ((?v1 S2)) (not (= (f15 ?v0 ?v1) f1))))))
(assert (forall ((?v0 S12)) (= (forall ((?v1 S2)) (=> (= (f41 ?v1 f47) f1) (= (f15 ?v0 ?v1) f1))) true)))
(assert (forall ((?v0 S11)) (= (forall ((?v1 S4)) (=> (= (f53 ?v1 f40) f1) (= (f13 ?v0 ?v1) f1))) true)))
(assert (forall ((?v0 S12)) (= (exists ((?v1 S2)) (and (= (f41 ?v1 f47) f1) (= (f15 ?v0 ?v1) f1))) false)))
(assert (forall ((?v0 S11)) (= (exists ((?v1 S4)) (and (= (f53 ?v1 f40) f1) (= (f13 ?v0 ?v1) f1))) false)))
(assert (forall ((?v0 S12)) (= (exists ((?v1 S2)) (= (f41 ?v1 ?v0) f1)) (not (= ?v0 f47)))))
(assert (forall ((?v0 S11)) (= (exists ((?v1 S4)) (= (f53 ?v1 ?v0) f1)) (not (= ?v0 f40)))))
(assert (forall ((?v0 S12)) (= (forall ((?v1 S2)) (not (= (f41 ?v1 ?v0) f1))) (= ?v0 f47))))
(assert (forall ((?v0 S11)) (= (forall ((?v1 S4)) (not (= (f53 ?v1 ?v0) f1))) (= ?v0 f40))))
(assert (= f40 (f54 f34)))
(assert (= f47 (f55 f35)))
(assert (forall ((?v0 S4) (?v1 S11)) (=> (= (f53 ?v0 ?v1) f1) (= (f19 (f38 ?v0) ?v1) ?v1))))
(assert (forall ((?v0 S2) (?v1 S12)) (=> (= (f41 ?v0 ?v1) f1) (= (f21 (f50 ?v0) ?v1) ?v1))))
(assert (forall ((?v0 S4) (?v1 S11) (?v2 S4)) (=> (= (f53 ?v0 ?v1) f1) (= (f53 ?v0 (f19 (f38 ?v2) ?v1)) f1))))
(assert (forall ((?v0 S2) (?v1 S12) (?v2 S2)) (=> (= (f41 ?v0 ?v1) f1) (= (f41 ?v0 (f21 (f50 ?v2) ?v1)) f1))))
(assert (forall ((?v0 S4) (?v1 S11) (?v2 S11)) (let ((?v_0 (f38 ?v0))) (=> (not (= (f53 ?v0 ?v1) f1)) (=> (not (= (f53 ?v0 ?v2) f1)) (= (= (f19 ?v_0 ?v1) (f19 ?v_0 ?v2)) (= ?v1 ?v2)))))))
(assert (forall ((?v0 S2) (?v1 S12) (?v2 S12)) (let ((?v_0 (f50 ?v0))) (=> (not (= (f41 ?v0 ?v1) f1)) (=> (not (= (f41 ?v0 ?v2) f1)) (= (= (f21 ?v_0 ?v1) (f21 ?v_0 ?v2)) (= ?v1 ?v2)))))))
(assert (forall ((?v0 S4) (?v1 S11) (?v2 S4)) (= (= (f13 (f19 (f38 ?v0) ?v1) ?v2) f1) (or (= ?v0 ?v2) (= (f13 ?v1 ?v2) f1)))))
(assert (forall ((?v0 S2) (?v1 S12) (?v2 S2)) (= (= (f15 (f21 (f50 ?v0) ?v1) ?v2) f1) (or (= ?v0 ?v2) (= (f15 ?v1 ?v2) f1)))))
(assert (forall ((?v0 S4) (?v1 S4) (?v2 S11)) (= (= (f53 ?v0 (f19 (f38 ?v1) ?v2)) f1) (or (= ?v0 ?v1) (= (f53 ?v0 ?v2) f1)))))
(assert (forall ((?v0 S2) (?v1 S2) (?v2 S12)) (= (= (f41 ?v0 (f21 (f50 ?v1) ?v2)) f1) (or (= ?v0 ?v1) (= (f41 ?v0 ?v2) f1)))))
(assert (forall ((?v0 S4) (?v1 S4) (?v2 S11)) (let ((?v_1 (f38 ?v0)) (?v_0 (f38 ?v1))) (= (f19 ?v_1 (f19 ?v_0 ?v2)) (f19 ?v_0 (f19 ?v_1 ?v2))))))
(assert (forall ((?v0 S2) (?v1 S2) (?v2 S12)) (let ((?v_1 (f50 ?v0)) (?v_0 (f50 ?v1))) (= (f21 ?v_1 (f21 ?v_0 ?v2)) (f21 ?v_0 (f21 ?v_1 ?v2))))))
(assert (forall ((?v0 S4) (?v1 S11)) (let ((?v_0 (f38 ?v0))) (let ((?v_1 (f19 ?v_0 ?v1))) (= (f19 ?v_0 ?v_1) ?v_1)))))
(assert (forall ((?v0 S2) (?v1 S12)) (let ((?v_0 (f50 ?v0))) (let ((?v_1 (f21 ?v_0 ?v1))) (= (f21 ?v_0 ?v_1) ?v_1)))))
(check-sat)
(exit)
